c Sudoku solution
p cnf 729 0
142 0
174 0
195 0
256 0
273 0
326 0
186 0
368 0
421 0
455 0
534 0
548 0
553 0
562 0
577 0
599 0
581 0
516 0
525 0
623 0
646 0
692 0
782 0
372 0
863 0
343 0
875 0
678 0
685 0
476 0
917 0
619 0
637 0
938 0
432 0
418 0
128 0
227 0
212 0
314 0
335 0
811 0
113 0
715 0
733 0
836 0
993 0
796 0
966 0
945 0
758 0
265 0
244 0
741 0
779 0
971 0
984 0
767 0
724 0
849 0
854 0
952 0
822 0
929 0
447 0
469 0
651 0
664 0
161 0
139 0
231 0
157 0
359 0
298 0
391 0
387 0
289 0
483 0
494 0
888 0
897 0
